(declare-fun _for_it_13 () Int)
(declare-fun kfdia () Int)
(declare-fun kidia () Int)
(declare-fun klev () Int)

(assert (forall ((_if_cond_2_val (Array Int Int)) (_if_cond_3_val (Array Int Int)) (_if_cond_4_val (Array Int Int)))
  (and
    (forall ((_for_it_14_0 Int) (_for_it_14_1 Int) (_for_it_15_0 Int) (_for_it_15_1 Int))
      (or
        (not (= (select _if_cond_2_val 0) 1))
        (not (<= _for_it_15_1 (+ kfdia (- 1))))
        (not (<= (+ kidia (- 1)) _for_it_15_1))
        (not (<= 0 _for_it_14_1))
        (not (<= _for_it_14_1 (+ klev (- 1))))
        (not (<= _for_it_15_0 (+ kfdia (- 1))))
        (not (<= (+ kidia (- 1)) _for_it_15_0))
        (not (<= 0 _for_it_14_0))
        (not (<= _for_it_14_0 (+ klev (- 1))))
        (not (= _for_it_15_0 _for_it_15_1))
        (not (= _for_it_14_0 _for_it_14_1))
        (not (= _for_it_13 (+ _for_it_13 1)))
      )
    )
    (forall ((_for_it_14_0 Int) (_for_it_14_1 Int) (_for_it_15_0 Int) (_for_it_15_1 Int))
      (or
        (not (= (select _if_cond_2_val 0) 1))
        (not (<= _for_it_15_1 (+ kfdia (- 1))))
        (not (<= (+ kidia (- 1)) _for_it_15_1))
        (not (<= _for_it_14_1 (+ klev (- 1))))
        (not (<= _for_it_15_0 (+ kfdia (- 1))))
        (not (<= (+ kidia (- 1)) _for_it_15_0))
        (and
          (or
            (not (= _for_it_13 4))
            (not (= _for_it_15_0 _for_it_15_1))
            (not (= _for_it_14_0 _for_it_14_1))
          )
          (or
            (not (= _for_it_15_0 _for_it_15_1))
            (not (= _for_it_14_0 _for_it_14_1))
            (not (= _for_it_13 (+ _for_it_13 1)))
          )
        )
        (not (<= 0 _for_it_14_0))
        (not (<= _for_it_14_0 (+ klev (- 1))))
        (not (<= 0 _for_it_14_1))
      )
    )
    (forall ((_for_it_14_0 Int) (_for_it_14_1 Int) (_for_it_15_0 Int) (_for_it_15_1 Int))
      (or
        (not (= (select _if_cond_2_val 0) 1))
        (not (<= _for_it_15_1 (+ kfdia (- 1))))
        (not (= _for_it_13 (- (+ _for_it_13 2) 1)))
        (not (<= (+ kidia (- 1)) _for_it_15_1))
        (not (<= _for_it_14_1 (+ klev (- 1))))
        (not (= _for_it_15_0 (- (+ _for_it_15_1 1) 1)))
        (not (<= _for_it_15_0 (+ kfdia (- 1))))
        (not (<= (+ kidia (- 1)) _for_it_15_0))
        (not (= _for_it_14_0 (- (+ _for_it_14_1 1) 1)))
        (not (<= 0 _for_it_14_0))
        (not (<= _for_it_14_0 (+ klev (- 1))))
        (not (<= 0 _for_it_14_1))
      )
    )
    (forall ((_for_it_14_0 Int) (_for_it_14_1 Int) (_for_it_15_0 Int) (_for_it_15_1 Int))
      (or
        (not (= (select _if_cond_2_val 0) 1))
        (not (<= _for_it_15_1 (+ kfdia (- 1))))
        (not (<= (+ kidia (- 1)) _for_it_15_1))
        (not (<= _for_it_14_1 (+ klev (- 1))))
        (not (<= _for_it_15_0 (+ kfdia (- 1))))
        (not (<= (+ kidia (- 1)) _for_it_15_0))
        (not (<= 0 _for_it_14_0))
        (not (<= _for_it_14_0 (+ klev (- 1))))
        (not (<= 0 _for_it_14_1))
        (and
          (or
            (not (= _for_it_15_0 _for_it_15_1))
            (not (= _for_it_14_0 _for_it_14_1))
            (not (= 4 (+ _for_it_13 1)))
          )
          (or
            (not (= _for_it_15_0 _for_it_15_1))
            (not (= _for_it_14_0 _for_it_14_1))
            (not (= _for_it_13 (+ _for_it_13 1)))
          )
        )
      )
    )
    (forall ((_for_it_14_0 Int) (_for_it_14_1 Int) (_for_it_15_0 Int) (_for_it_15_1 Int))
      (or
        (not (= (select _if_cond_2_val 0) 1))
        (not (<= _for_it_15_1 (+ kfdia (- 1))))
        (not (<= (+ kidia (- 1)) _for_it_15_1))
        (not (<= _for_it_14_1 (+ klev (- 1))))
        (not (<= _for_it_15_0 (+ kfdia (- 1))))
        (not (<= (+ kidia (- 1)) _for_it_15_0))
        (not (<= 0 _for_it_14_0))
        (not (<= _for_it_14_0 (+ klev (- 1))))
        (and
          (or
            (not (= _for_it_13 4))
            (not (= _for_it_15_0 _for_it_15_1))
            (not (= _for_it_14_0 _for_it_14_1))
          )
          (or
            (not (= _for_it_15_0 _for_it_15_1))
            (not (= _for_it_14_0 _for_it_14_1))
            (not (= 4 (+ _for_it_13 1)))
          )
          (or
            (not (= _for_it_15_0 _for_it_15_1))
            (not (= _for_it_14_0 _for_it_14_1))
          )
        )
        (not (<= 0 _for_it_14_1))
      )
    )
    (forall ((_for_it_14_0 Int) (_for_it_14_1 Int) (_for_it_15_0 Int) (_for_it_15_1 Int))
      (or
        (not (= (select _if_cond_2_val 0) 1))
        (not (<= _for_it_15_1 (+ kfdia (- 1))))
        (not (<= (+ kidia (- 1)) _for_it_15_1))
        (not (<= 0 _for_it_14_1))
        (not (<= _for_it_14_1 (+ klev (- 1))))
        (not (<= _for_it_15_0 (+ kfdia (- 1))))
        (not (<= (+ kidia (- 1)) _for_it_15_0))
        (not (= 4 (+ _for_it_13 1)))
        (not (<= 0 _for_it_14_0))
        (not (<= _for_it_14_0 (+ klev (- 1))))
        (not (= _for_it_15_0 _for_it_15_1))
        (not (= _for_it_14_0 _for_it_14_1))
      )
    )
    (forall ((_for_it_14_0 Int) (_for_it_14_1 Int) (_for_it_15_0 Int) (_for_it_15_1 Int))
      (or
        (not (= (select _if_cond_2_val 0) 1))
        (not (<= _for_it_15_1 (+ kfdia (- 1))))
        (not (= 4 (- (+ _for_it_13 2) 1)))
        (not (<= (+ kidia (- 1)) _for_it_15_1))
        (not (<= _for_it_14_1 (+ klev (- 1))))
        (not (= _for_it_15_0 (- (+ _for_it_15_1 1) 1)))
        (not (<= _for_it_15_0 (+ kfdia (- 1))))
        (not (<= (+ kidia (- 1)) _for_it_15_0))
        (not (= _for_it_14_0 (- (+ _for_it_14_1 1) 1)))
        (not (<= 0 _for_it_14_0))
        (not (<= _for_it_14_0 (+ klev (- 1))))
        (not (<= 0 _for_it_14_1))
      )
    )
    (forall ((_for_it_14_0 Int) (_for_it_14_1 Int) (_for_it_15_0 Int) (_for_it_15_1 Int))
      (or
        (not (= (select _if_cond_2_val 0) 1))
        (not (<= _for_it_15_1 (+ kfdia (- 1))))
        (not (<= (+ kidia (- 1)) _for_it_15_1))
        (not (= (select _if_cond_4_val 0) 1))
        (not (<= 0 _for_it_14_1))
        (not (<= _for_it_14_1 (+ klev (- 1))))
        (not (<= _for_it_15_0 (+ kfdia (- 1))))
        (not (<= (+ kidia (- 1)) _for_it_15_0))
        (not (<= 0 _for_it_14_0))
        (not (<= _for_it_14_0 (+ klev (- 1))))
        (not (= _for_it_15_0 _for_it_15_1))
        (not (= _for_it_14_0 _for_it_14_1))
      )
    )
    (forall ((_for_it_14_0 Int) (_for_it_14_1 Int) (_for_it_15_0 Int) (_for_it_15_1 Int))
      (or
        (not (= (select _if_cond_2_val 0) 1))
        (not (<= _for_it_15_1 (+ kfdia (- 1))))
        (not (= (select _if_cond_3_val 0) 1))
        (not (<= (+ kidia (- 1)) _for_it_15_1))
        (not (= (select _if_cond_4_val 0) 1))
        (not (<= 0 _for_it_14_1))
        (not (<= _for_it_14_1 (+ klev (- 1))))
        (not (<= _for_it_15_0 (+ kfdia (- 1))))
        (not (<= (+ kidia (- 1)) _for_it_15_0))
        (not (<= 0 _for_it_14_0))
        (not (<= _for_it_14_0 (+ klev (- 1))))
        (not (= _for_it_15_0 _for_it_15_1))
        (not (= _for_it_14_0 _for_it_14_1))
      )
    )
    (forall ((_for_it_14_0 Int) (_for_it_14_1 Int) (_for_it_15_0 Int) (_for_it_15_1 Int))
      (or
        (not (= (select _if_cond_2_val 0) 1))
        (not (<= _for_it_15_1 (+ kfdia (- 1))))
        (not (<= (+ kidia (- 1)) _for_it_15_1))
        (not (= (select _if_cond_4_val 0) 1))
        (not (<= _for_it_14_1 (+ klev (- 1))))
        (not (<= _for_it_15_0 (+ kfdia (- 1))))
        (not (<= (+ kidia (- 1)) _for_it_15_0))
        (not (<= 0 _for_it_14_0))
        (not (<= _for_it_14_0 (+ klev (- 1))))
        (not (<= 0 _for_it_14_1))
      )
    )
    (forall ((_for_it_14_0 Int) (_for_it_14_1 Int) (_for_it_15_0 Int) (_for_it_15_1 Int))
      (or
        (not (= (select _if_cond_2_val 0) 1))
        (not (<= _for_it_15_1 (+ kfdia (- 1))))
        (not (<= (+ kidia (- 1)) _for_it_15_1))
        (not (<= _for_it_14_1 (+ klev (- 1))))
        (not (<= _for_it_15_0 (+ kfdia (- 1))))
        (not (<= (+ kidia (- 1)) _for_it_15_0))
        (not (<= 0 _for_it_14_0))
        (not (<= _for_it_14_0 (+ klev (- 1))))
        (not (<= 0 _for_it_14_1))
      )
    )
    (forall ((_for_it_14_0 Int) (_for_it_14_1 Int) (_for_it_15_0 Int) (_for_it_15_1 Int))
      (or
        (not (= (select _if_cond_2_val 0) 1))
        (not (<= _for_it_15_1 (+ kfdia (- 1))))
        (not (= (select _if_cond_3_val 0) 1))
        (not (<= (+ kidia (- 1)) _for_it_15_1))
        (not (<= 0 _for_it_14_1))
        (not (<= _for_it_14_1 (+ klev (- 1))))
        (not (<= _for_it_15_0 (+ kfdia (- 1))))
        (not (<= (+ kidia (- 1)) _for_it_15_0))
        (not (<= 0 _for_it_14_0))
        (not (<= _for_it_14_0 (+ klev (- 1))))
        (not (= _for_it_15_0 _for_it_15_1))
        (not (= _for_it_14_0 _for_it_14_1))
      )
    )
    (forall ((_for_it_14_0 Int) (_for_it_14_1 Int) (_for_it_15_0 Int) (_for_it_15_1 Int))
      (or
        (not (= (select _if_cond_2_val 0) 1))
        (not (<= _for_it_15_1 (+ kfdia (- 1))))
        (not (= (select _if_cond_3_val 0) 1))
        (not (<= (+ kidia (- 1)) _for_it_15_1))
        (not (<= _for_it_14_1 (+ klev (- 1))))
        (not (<= _for_it_15_0 (+ kfdia (- 1))))
        (not (<= (+ kidia (- 1)) _for_it_15_0))
        (not (<= 0 _for_it_14_0))
        (not (<= _for_it_14_0 (+ klev (- 1))))
        (not (<= 0 _for_it_14_1))
      )
    )
    (forall ((_for_it_14_0 Int) (_for_it_14_1 Int) (_for_it_15_0 Int) (_for_it_15_1 Int))
      (or
        (not (= (select _if_cond_2_val 0) 1))
        (not (<= _for_it_15_1 (+ kfdia (- 1))))
        (not (<= (+ kidia (- 1)) _for_it_15_1))
        (not (<= 0 _for_it_14_1))
        (not (<= _for_it_14_1 (+ klev (- 1))))
        (not (<= _for_it_15_0 (+ kfdia (- 1))))
        (not (<= (+ kidia (- 1)) _for_it_15_0))
        (not (<= 0 _for_it_14_0))
        (not (<= _for_it_14_0 (+ klev (- 1))))
        (not (= _for_it_15_0 _for_it_15_1))
        (not (= _for_it_14_0 _for_it_14_1))
      )
    )
    (forall ((_for_it_14_0 Int) (_for_it_14_1 Int) (_for_it_15_0 Int) (_for_it_15_1 Int))
      (or
        (not (= _for_it_13 4))
        (not (= (select _if_cond_2_val 0) 1))
        (not (<= _for_it_15_1 (+ kfdia (- 1))))
        (not (<= (+ kidia (- 1)) _for_it_15_1))
        (not (<= 0 _for_it_14_1))
        (not (<= _for_it_14_1 (+ klev (- 1))))
        (not (<= _for_it_15_0 (+ kfdia (- 1))))
        (not (<= (+ kidia (- 1)) _for_it_15_0))
        (not (<= 0 _for_it_14_0))
        (not (<= _for_it_14_0 (+ klev (- 1))))
        (not (= _for_it_15_0 _for_it_15_1))
        (not (= _for_it_14_0 _for_it_14_1))
      )
    )
    (forall ((_for_it_14_0 Int) (_for_it_14_1 Int) (_for_it_15_0 Int) (_for_it_15_1 Int))
      (or
        (not (= (select _if_cond_2_val 0) 1))
        (not (<= _for_it_15_1 (+ kfdia (- 1))))
        (not (<= (+ kidia (- 1)) _for_it_15_1))
        (not (<= _for_it_14_1 (+ klev (- 1))))
        (not (<= _for_it_15_0 (+ kfdia (- 1))))
        (not (<= (+ kidia (- 1)) _for_it_15_0))
        (not (= (- (+ _for_it_15_0 1) 1) _for_it_15_1))
        (not (= (- (+ _for_it_14_0 1) 1) _for_it_14_1))
        (not (<= 0 _for_it_14_0))
        (not (<= _for_it_14_0 (+ klev (- 1))))
        (not (= (- (+ _for_it_13 1) 1) (+ _for_it_13 1)))
        (not (<= 0 _for_it_14_1))
      )
    )
    (forall ((_for_it_14_0 Int) (_for_it_14_1 Int) (_for_it_15_0 Int) (_for_it_15_1 Int))
      (or
        (not (= (select _if_cond_2_val 0) 1))
        (not (<= _for_it_15_1 (+ kfdia (- 1))))
        (not (<= (+ kidia (- 1)) _for_it_15_1))
        (not (<= _for_it_14_1 (+ klev (- 1))))
        (not (<= _for_it_15_0 (+ kfdia (- 1))))
        (not (<= (+ kidia (- 1)) _for_it_15_0))
        (not (= (- (+ _for_it_15_0 1) 1) _for_it_15_1))
        (not (= (- (+ _for_it_14_0 1) 1) _for_it_14_1))
        (not (= (- (+ _for_it_13 1) 1) 4))
        (not (<= 0 _for_it_14_0))
        (not (<= _for_it_14_0 (+ klev (- 1))))
        (not (<= 0 _for_it_14_1))
      )
    )
    (forall ((_for_it_14_0 Int) (_for_it_14_1 Int) (_for_it_15_0 Int) (_for_it_15_1 Int))
      (or
        (not (<= _for_it_15_1 (+ kfdia (- 1))))
        (not (<= (+ kidia (- 1)) _for_it_15_1))
        (not (<= _for_it_14_1 (+ klev (- 1))))
        (not (<= _for_it_15_0 (+ kfdia (- 1))))
        (not (<= (+ kidia (- 1)) _for_it_15_0))
        (not (<= 0 _for_it_14_0))
        (not (<= _for_it_14_0 (+ klev (- 1))))
        (not (<= 0 _for_it_14_1))
      )
    )
    (and
      (<= 0 _for_it_13)
      (<= (+ _for_it_13 1) 3)
      (<= 1 (+ klev (- 1)))
      (<= kidia (+ kfdia (- 1)))
    )
  )
))

(check-sat)